Cu O                                    
   1.00000000000000     
    13.0592300811382120    0.0080963303045416    0.5837873521799538
     0.0020328273671603    3.9180806262327121    0.0011369783583956
    -1.0402268348858601    0.0030152592929626   10.3467833583849309
  O   Cu
  24  24
Direct
  0.0011349605677538  0.4921413548571181  0.1255903260409639
  0.0011349605677538  0.4921413548571181  0.6255903260409639
  0.3343822418015918  0.4765165420523871  0.1271507195287072
  0.3343822418015918  0.4765165420523871  0.6271507195287072
  0.6673444551653418  0.4758267729171806  0.1216474956517928
  0.6673444551653418  0.4758267729171806  0.6216474956517928
  0.9988650394322462  0.5078586151428794  0.3744096739590361
  0.9988650394322462  0.5078586151428794  0.8744096739590361
  0.3326555158346665  0.5241731970828241  0.3783525043482072
  0.3326555158346665  0.5241731970828241  0.8783525043482072
  0.6656177291984093  0.5234834279476104  0.3728492804712928
  0.6656177291984093  0.5234834279476104  0.8728492804712928
  0.1660867468582552  0.9806955985170660  0.1298147740475528
  0.1660867468582552  0.9806955985170660  0.6298147740475528
  0.4991592719855120  0.9753097622646933  0.1256821459677653
  0.4991592719855120  0.9753097622646933  0.6256821459677653
  0.8322796367687388  0.9784306564001639  0.1212127232972406
  0.8322796367687388  0.9784306564001639  0.6212127232972477
  0.1677203772312623  0.0215693665998344  0.3787872767027594
  0.1677203772312623  0.0215693665998344  0.8787872767027523
  0.5008407280144880  0.0246902607353121  0.3743178540322347
  0.5008407280144880  0.0246902607353121  0.8743178540322347
  0.8339132671417531  0.0193044244829323  0.3701852259524472
  0.8339132671417531  0.0193044244829323  0.8701852259524472
  0.0831350383677503  0.2496896535014983  0.0025099256518146
  0.0831350383677503  0.2496896535014983  0.5025099256518146
  0.4174480111081351  0.2485933753508363  0.0004418651743165
  0.4174480111081351  0.2485933753508363  0.5004418651743165
  0.7503541418574784  0.2476965448715021  0.9951927786996819
  0.7503541418574784  0.2476965448715021  0.4951927786996819
  0.2496458581425216  0.7523034551284979  0.0048072213003181
  0.2496458581425216  0.7523034551284979  0.5048072213003181
  0.5825520178918637  0.7514066246491566  0.9995581348256835
  0.5825520178918637  0.7514066246491566  0.4995581348256835
  0.9168649476322486  0.7503103464985017  0.9974900743481854
  0.9168649476322486  0.7503103464985017  0.4974900743481854
  0.2507006187882439  0.2525208731836344  0.2528842163423093
  0.2507006187882439  0.2525208731836344  0.7528842163423093
  0.5836962732510926  0.2517737321552715  0.2475241625007882
  0.5836962732510926  0.2517737321552715  0.7475241625007882
  0.9165636574295632  0.2491227382455534  0.2453490702762906
  0.9165636574295632  0.2491227382455534  0.7453490702762906
  0.0834363285704285  0.7508772617544466  0.2546509297237094
  0.0834363285704285  0.7508772617544466  0.7546509297237094
  0.4163037557489062  0.7482262678447285  0.2524758374992118
  0.4163037557489062  0.7482262678447285  0.7524758374992118
  0.7492993812117561  0.7474791268163656  0.2471157836576907
  0.7492993812117561  0.7474791268163656  0.7471157836576907
 
  0.00000000E+00  0.00000000E+00  0.00000000E+00
  0.00000000E+00  0.00000000E+00  0.00000000E+00
  0.00000000E+00  0.00000000E+00  0.00000000E+00
  0.00000000E+00  0.00000000E+00  0.00000000E+00
  0.00000000E+00  0.00000000E+00  0.00000000E+00
  0.00000000E+00  0.00000000E+00  0.00000000E+00
  0.00000000E+00  0.00000000E+00  0.00000000E+00
  0.00000000E+00  0.00000000E+00  0.00000000E+00
  0.00000000E+00  0.00000000E+00  0.00000000E+00
  0.00000000E+00  0.00000000E+00  0.00000000E+00
  0.00000000E+00  0.00000000E+00  0.00000000E+00
  0.00000000E+00  0.00000000E+00  0.00000000E+00
  0.00000000E+00  0.00000000E+00  0.00000000E+00
  0.00000000E+00  0.00000000E+00  0.00000000E+00
  0.00000000E+00  0.00000000E+00  0.00000000E+00
  0.00000000E+00  0.00000000E+00  0.00000000E+00
  0.00000000E+00  0.00000000E+00  0.00000000E+00
  0.00000000E+00  0.00000000E+00  0.00000000E+00
  0.00000000E+00  0.00000000E+00  0.00000000E+00
  0.00000000E+00  0.00000000E+00  0.00000000E+00
  0.00000000E+00  0.00000000E+00  0.00000000E+00
  0.00000000E+00  0.00000000E+00  0.00000000E+00
  0.00000000E+00  0.00000000E+00  0.00000000E+00
  0.00000000E+00  0.00000000E+00  0.00000000E+00
  0.00000000E+00  0.00000000E+00  0.00000000E+00
  0.00000000E+00  0.00000000E+00  0.00000000E+00
  0.00000000E+00  0.00000000E+00  0.00000000E+00
  0.00000000E+00  0.00000000E+00  0.00000000E+00
  0.00000000E+00  0.00000000E+00  0.00000000E+00
  0.00000000E+00  0.00000000E+00  0.00000000E+00
  0.00000000E+00  0.00000000E+00  0.00000000E+00
  0.00000000E+00  0.00000000E+00  0.00000000E+00
  0.00000000E+00  0.00000000E+00  0.00000000E+00
  0.00000000E+00  0.00000000E+00  0.00000000E+00
  0.00000000E+00  0.00000000E+00  0.00000000E+00
  0.00000000E+00  0.00000000E+00  0.00000000E+00
  0.00000000E+00  0.00000000E+00  0.00000000E+00
  0.00000000E+00  0.00000000E+00  0.00000000E+00
  0.00000000E+00  0.00000000E+00  0.00000000E+00
  0.00000000E+00  0.00000000E+00  0.00000000E+00
  0.00000000E+00  0.00000000E+00  0.00000000E+00
  0.00000000E+00  0.00000000E+00  0.00000000E+00
  0.00000000E+00  0.00000000E+00  0.00000000E+00
  0.00000000E+00  0.00000000E+00  0.00000000E+00
  0.00000000E+00  0.00000000E+00  0.00000000E+00
  0.00000000E+00  0.00000000E+00  0.00000000E+00
  0.00000000E+00  0.00000000E+00  0.00000000E+00
  0.00000000E+00  0.00000000E+00  0.00000000E+00
